; benchmark generated from python API
(set-info :status unknown)
(declare-fun DISJ_W_S2_R_S1 () Bool)
(declare-fun W_S2_V2 () Bool)
(declare-fun R_S2_V5 () Bool)
(declare-fun R_S2_V3 () Bool)
(declare-fun R_S2_V1 () Bool)
(declare-fun W_S2_V5 () Bool)
(declare-fun R_S2_V4 () Bool)
(declare-fun W_S2_V3 () Bool)
(declare-fun W_S1_V4 () Bool)
(declare-fun W_S1_V5 () Bool)
(declare-fun DISJ_W_S1_W_S2 () Bool)
(declare-fun W_S2_V1 () Bool)
(declare-fun DISJ_W_S1_R_S2 () Bool)
(declare-fun DISJ_W_S2_R_S2 () Bool)
(declare-fun R_E1_V4 () Bool)
(declare-fun R_E1_V5 () Bool)
(declare-fun R_S2_V2 () Bool)
(declare-fun R_S1_V4 () Bool)
(declare-fun R_S1_V5 () Bool)
(declare-fun R_S1_V2 () Bool)
(declare-fun R_S1_V3 () Bool)
(declare-fun R_S1_V1 () Bool)
(declare-fun R_E1_V2 () Bool)
(declare-fun DISJ_W_S2_R_E1 () Bool)
(declare-fun R_E1_V3 () Bool)
(declare-fun DISJ_W_S1_R_S1 () Bool)
(declare-fun W_S2_V4 () Bool)
(declare-fun W_S1_V3 () Bool)
(declare-fun W_S1_V2 () Bool)
(declare-fun W_S1_V1 () Bool)
(declare-fun R_E1_V1 () Bool)
(declare-fun DISJ_W_S1_R_E1 () Bool)
(assert
 (let (($x653 (not W_S2_V2)))
 (let (($x4065 (not R_S2_V5)))
 (let (($x2588 (not R_S2_V3)))
 (let (($x5040 (not R_S2_V1)))
 (let (($x2379 (not (and $x5040 $x2588 $x4065 $x653 DISJ_W_S2_R_S1))))
 (let (($x2735 (not (and $x5040 (not R_S2_V4) $x653 (not W_S2_V5) DISJ_W_S2_R_S1))))
 (let (($x1734 (not (and $x5040 $x4065 (not R_S2_V4) $x653 DISJ_W_S2_R_S1))))
 (let (($x1464 (not (and $x5040 (not R_S2_V4) $x653 (not W_S2_V3) DISJ_W_S2_R_S1))))
 (let (($x1409 (not (and $x5040 $x2588 (not R_S2_V4) $x653 DISJ_W_S2_R_S1))))
 (let (($x6015 (not (and $x4065 (not W_S1_V4) (not W_S2_V3) DISJ_W_S2_R_S1))))
 (let (($x334 (not (and $x4065 (not R_S2_V4) (not W_S2_V3) DISJ_W_S2_R_S1))))
 (let (($x1391 (not (and (not R_S2_V4) (not W_S1_V5) (not W_S2_V3) DISJ_W_S2_R_S1))))
 (let (($x3351 (not (and (not R_S2_V4) (not W_S2_V5) (not W_S2_V3) DISJ_W_S2_R_S1))))
 (let (($x3878 (not (and DISJ_W_S1_W_S2 DISJ_W_S2_R_S1))))
 (let (($x4996 (not (and $x2588 (not W_S1_V4) (not W_S2_V5) DISJ_W_S2_R_S1))))
 (let (($x4968 (not W_S2_V1)))
 (let (($x5278 (and $x4968 $x653)))
 (let (($x1014 (not $x5278)))
 (let (($x3652 (not (and $x2588 (not R_S2_V4) (not W_S2_V5) DISJ_W_S2_R_S1))))
 (let (($x574 (not (and DISJ_W_S1_R_S2 DISJ_W_S2_R_S1))))
 (let (($x2507 (not (and $x653 DISJ_W_S2_R_S2))))
 (let (($x293 (not (and DISJ_W_S2_R_S1 DISJ_W_S2_R_S2))))
 (let (($x5911 (not (and W_S1_V4 R_E1_V4))))
 (let (($x991 (not (and W_S1_V5 R_E1_V5))))
 (let (($x3867 (forall ((V3_0 Int) )(forall ((V2_0 Int) )(forall ((V5_0 Int) )(forall ((V4_0 Int) )(forall ((MW_S1_V1 Bool) )(forall ((MW_S1_V3 Bool) )(forall ((MW_S1_V2 Bool) )(forall ((MW_S1_V5 Bool) )(forall ((MW_S1_V4 Bool) )(forall ((MW_S2_V1 Bool) )(forall ((MW_S2_V3 Bool) )(forall ((MW_S2_V2 Bool) )(forall ((MW_S2_V5 Bool) )(forall ((MW_S2_V4 Bool) )(forall ((S1_V1_!2447 Int) )(forall ((S1_V1_!2457 Int) )(forall ((S1_V1_!2468 Int) )(forall ((S2_V5_!2455 Int) )(forall ((S2_V5_!2465 Int) )(forall ((S2_V5_!2477 Int) )(forall ((S2_V5_!2482 Int) )(forall ((S1_V3_!2448 Int) )(forall ((S1_V3_!2458 Int) )(forall ((S1_V3_!2469 Int) )(forall ((S1_V2_!2449 Int) )(forall ((S1_V2_!2459 Int) )(forall ((S1_V2_!2470 Int) )(forall ((E1_!2446 Int) )(forall ((E1_!2467 Int) )(forall ((E1_!2473 Int) )(forall ((S2_V4_!2456 Int) )(forall ((S2_V4_!2466 Int) )(forall ((S2_V4_!2478 Int) )(forall ((S2_V4_!2483 Int) )(forall ((S1_V5_!2450 Int) )(forall ((S1_V5_!2460 Int) )(forall ((S1_V5_!2471 Int) )(forall ((S2_V1_!2452 Int) )(forall ((S2_V1_!2462 Int) )(forall ((S2_V1_!2474 Int) )(forall ((S2_V1_!2479 Int) )(forall ((S1_V4_!2451 Int) )(forall ((S1_V4_!2461 Int) )(forall ((S1_V4_!2472 Int) )(forall ((S2_V2_!2454 Int) )(forall ((S2_V2_!2464 Int) )(forall ((S2_V2_!2476 Int) )(forall ((S2_V2_!2481 Int) )(forall ((S2_V3_!2453 Int) )(forall ((S2_V3_!2463 Int) )(forall ((S2_V3_!2475 Int) )(forall ((S2_V3_!2480 Int) )(let (($x3431 (= (ite MW_S2_V4 S2_V4_!2466 (ite MW_S1_V4 S1_V4_!2461 (ite MW_S2_V4 S2_V4_!2456 (ite MW_S1_V4 S1_V4_!2451 V4_0)))) (ite MW_S2_V4 S2_V4_!2483 (ite MW_S1_V4 S1_V4_!2472 V4_0)))))
 (let (($x5487 (= (ite MW_S2_V5 S2_V5_!2465 (ite MW_S1_V5 S1_V5_!2460 (ite MW_S2_V5 S2_V5_!2455 (ite MW_S1_V5 S1_V5_!2450 V5_0)))) (ite MW_S2_V5 S2_V5_!2482 (ite MW_S1_V5 S1_V5_!2471 V5_0)))))
 (let ((?x1332 (ite MW_S1_V2 S1_V2_!2470 V2_0)))
 (let ((?x2794 (ite MW_S2_V2 S2_V2_!2481 ?x1332)))
 (let ((?x2142 (ite MW_S1_V2 S1_V2_!2449 V2_0)))
 (let ((?x1260 (ite MW_S2_V2 S2_V2_!2454 ?x2142)))
 (let ((?x2388 (ite MW_S1_V2 S1_V2_!2459 ?x1260)))
 (let ((?x1861 (ite MW_S2_V2 S2_V2_!2464 ?x2388)))
 (let (($x3757 (= (ite MW_S2_V3 S2_V3_!2463 (ite MW_S1_V3 S1_V3_!2458 (ite MW_S2_V3 S2_V3_!2453 (ite MW_S1_V3 S1_V3_!2448 V3_0)))) (ite MW_S2_V3 S2_V3_!2480 (ite MW_S1_V3 S1_V3_!2469 V3_0)))))
 (let ((?x2194 (ite MW_S2_V1 S2_V1_!2474 E1_!2473)))
 (let ((?x2879 (+ 1 ?x2194)))
 (let ((?x2184 (ite MW_S2_V1 S2_V1_!2479 ?x2879)))
 (let ((?x2289 (ite MW_S1_V1 S1_V1_!2447 E1_!2446)))
 (let ((?x1848 (ite MW_S2_V1 S2_V1_!2452 ?x2289)))
 (let ((?x1715 (+ 1 ?x1848)))
 (let ((?x1685 (ite MW_S1_V1 S1_V1_!2457 ?x1715)))
 (let ((?x1751 (ite MW_S2_V1 S2_V1_!2462 ?x1685)))
 (let (($x1372 (and (not (<= V2_0 E1_!2446)) (not (<= ?x1260 ?x1715)) (>= ?x1751 (+ (- 1) ?x1861)) (not (<= V2_0 E1_!2467)) (>= (ite MW_S1_V1 S1_V1_!2468 E1_!2467) (+ (- 1) ?x1332)) (not (<= ?x1332 E1_!2473)) (not (<= (ite MW_S2_V2 S2_V2_!2476 ?x1332) ?x2879)) (>= ?x2184 (+ (- 1) ?x2794)))))
 (let (($x350 (= S2_V3_!2475 S2_V3_!2480)))
 (let (($x2720 (not R_S2_V4)))
 (let (($x255 (or $x2720 (= (ite MW_S1_V4 S1_V4_!2472 V4_0) (ite MW_S2_V4 S2_V4_!2478 (ite MW_S1_V4 S1_V4_!2472 V4_0))))))
 (let (($x4065 (not R_S2_V5)))
 (let (($x1662 (or $x4065 (= (ite MW_S1_V5 S1_V5_!2471 V5_0) (ite MW_S2_V5 S2_V5_!2477 (ite MW_S1_V5 S1_V5_!2471 V5_0))))))
 (let (($x2588 (not R_S2_V3)))
 (let (($x6019 (or $x2588 (= (ite MW_S1_V3 S1_V3_!2469 V3_0) (ite MW_S2_V3 S2_V3_!2475 (ite MW_S1_V3 S1_V3_!2469 V3_0))))))
 (let (($x1983 (and (or (not R_S2_V1) (= E1_!2473 ?x2879)) $x6019 (or (not R_S2_V2) (= ?x1332 (ite MW_S2_V2 S2_V2_!2476 ?x1332))) $x1662 $x255)))
 (let (($x3826 (not $x1983)))
 (let (($x2857 (= S2_V3_!2475 S2_V3_!2463)))
 (let ((?x1773 (ite MW_S1_V4 S1_V4_!2451 V4_0)))
 (let ((?x3215 (ite MW_S2_V4 S2_V4_!2456 ?x1773)))
 (let ((?x2936 (ite MW_S1_V4 S1_V4_!2461 ?x3215)))
 (let ((?x411 (ite MW_S1_V4 S1_V4_!2472 V4_0)))
 (let ((?x2111 (ite MW_S1_V5 S1_V5_!2450 V5_0)))
 (let ((?x5021 (ite MW_S2_V5 S2_V5_!2455 ?x2111)))
 (let ((?x5590 (ite MW_S1_V5 S1_V5_!2460 ?x5021)))
 (let ((?x3987 (ite MW_S1_V5 S1_V5_!2471 V5_0)))
 (let ((?x3466 (ite MW_S1_V3 S1_V3_!2448 V3_0)))
 (let ((?x2326 (ite MW_S2_V3 S2_V3_!2453 ?x3466)))
 (let ((?x1601 (ite MW_S1_V3 S1_V3_!2458 ?x2326)))
 (let ((?x2139 (ite MW_S1_V3 S1_V3_!2469 V3_0)))
 (let (($x4983 (and (or (not R_S2_V1) (= E1_!2473 ?x1685)) (or $x2588 (= ?x2139 ?x1601)) (or (not R_S2_V2) (= ?x1332 ?x2388)) (or $x4065 (= ?x3987 ?x5590)) (or $x2720 (= ?x411 ?x2936)))))
 (let (($x468 (not $x4983)))
 (let (($x1973 (= S2_V3_!2475 S2_V3_!2453)))
 (let (($x1472 (and (or (not R_S2_V1) (= E1_!2473 ?x2289)) (or $x2588 (= ?x2139 ?x3466)) (or (not R_S2_V2) (= ?x1332 ?x2142)) (or $x4065 (= ?x3987 ?x2111)) (or $x2720 (= ?x411 ?x1773)))))
 (let (($x4745 (not $x1472)))
 (let (($x3137 (= S2_V3_!2463 S2_V3_!2480)))
 (let (($x3414 (and (or (not R_S2_V1) (= ?x1685 ?x2879)) (or $x2588 (= ?x1601 (ite MW_S2_V3 S2_V3_!2475 ?x2139))) (or (not R_S2_V2) (= ?x2388 (ite MW_S2_V2 S2_V2_!2476 ?x1332))) (or $x4065 (= ?x5590 (ite MW_S2_V5 S2_V5_!2477 ?x3987))) (or $x2720 (= ?x2936 (ite MW_S2_V4 S2_V4_!2478 ?x411))))))
 (let (($x1454 (not $x3414)))
 (let (($x5104 (= S2_V3_!2463 S2_V3_!2453)))
 (let (($x2155 (and (or (not R_S2_V1) (= ?x1685 ?x2289)) (or $x2588 (= ?x1601 ?x3466)) (or (not R_S2_V2) (= ?x2388 ?x2142)) (or $x4065 (= ?x5590 ?x2111)) (or $x2720 (= ?x2936 ?x1773)))))
 (let (($x336 (not $x2155)))
 (let (($x40 (= S2_V3_!2453 S2_V3_!2480)))
 (let (($x355 (and (or (not R_S2_V1) (= ?x2289 ?x2879)) (or $x2588 (= ?x3466 (ite MW_S2_V3 S2_V3_!2475 ?x2139))) (or (not R_S2_V2) (= ?x2142 (ite MW_S2_V2 S2_V2_!2476 ?x1332))) (or $x4065 (= ?x2111 (ite MW_S2_V5 S2_V5_!2477 ?x3987))) (or $x2720 (= ?x1773 (ite MW_S2_V4 S2_V4_!2478 ?x411))))))
 (let (($x2200 (not $x355)))
 (let (($x1008 (= S2_V2_!2481 S2_V2_!2476)))
 (let (($x933 (and (or (not R_S2_V1) (= ?x2194 (+ (- 1) E1_!2473))) (or $x2588 (= (ite MW_S2_V3 S2_V3_!2475 ?x2139) ?x2139)) (or (not R_S2_V2) (= (ite MW_S2_V2 S2_V2_!2476 ?x1332) ?x1332)) (or $x4065 (= (ite MW_S2_V5 S2_V5_!2477 ?x3987) ?x3987)) (or $x2720 (= (ite MW_S2_V4 S2_V4_!2478 ?x411) ?x411)))))
 (let (($x1563 (not $x933)))
 (let (($x2624 (= S2_V2_!2481 S2_V2_!2464)))
 (let (($x2342 (and (or (not R_S2_V1) (= ?x2194 (+ (- 1) ?x1685))) (or $x2588 (= (ite MW_S2_V3 S2_V3_!2475 ?x2139) ?x1601)) (or (not R_S2_V2) (= (ite MW_S2_V2 S2_V2_!2476 ?x1332) ?x2388)) (or $x4065 (= (ite MW_S2_V5 S2_V5_!2477 ?x3987) ?x5590)) (or $x2720 (= (ite MW_S2_V4 S2_V4_!2478 ?x411) ?x2936)))))
 (let (($x2773 (= S2_V2_!2464 S2_V2_!2476)))
 (let (($x2644 (and (or (not R_S2_V1) (= ?x1685 E1_!2473)) (or $x2588 (= ?x1601 ?x2139)) (or (not R_S2_V2) (= ?x2388 ?x1332)) (or $x4065 (= ?x5590 ?x3987)) (or $x2720 (= ?x2936 ?x411)))))
 (let (($x1420 (not $x2644)))
 (let (($x2710 (= S2_V2_!2454 S2_V2_!2476)))
 (let (($x2673 (and (or (not R_S2_V1) (= ?x2289 E1_!2473)) (or $x2588 (= ?x3466 ?x2139)) (or (not R_S2_V2) (= ?x2142 ?x1332)) (or $x4065 (= ?x2111 ?x3987)) (or $x2720 (= ?x1773 ?x411)))))
 (let (($x5843 (not $x2673)))
 (let (($x3110 (= S2_V2_!2454 S2_V2_!2464)))
 (let (($x1191 (and (or (not R_S2_V1) (= ?x2289 ?x1685)) (or $x2588 (= ?x3466 ?x1601)) (or (not R_S2_V2) (= ?x2142 ?x2388)) (or $x4065 (= ?x2111 ?x5590)) (or $x2720 (= ?x1773 ?x2936)))))
 (let (($x1051 (not $x1191)))
 (let (($x3292 (= S1_V4_!2472 S1_V4_!2461)))
 (let (($x763 (not R_S1_V4)))
 (let (($x3793 (or $x763 (= V4_0 ?x3215))))
 (let (($x3192 (not R_S1_V5)))
 (let (($x5291 (or $x3192 (= V5_0 ?x5021))))
 (let (($x2087 (not R_S1_V2)))
 (let (($x1752 (or $x2087 (= V2_0 ?x1260))))
 (let (($x1612 (not R_S1_V3)))
 (let (($x1577 (or $x1612 (= V3_0 ?x2326))))
 (let (($x3359 (not (and (or (not R_S1_V1) (= E1_!2467 ?x1715)) $x1577 $x1752 $x5291 $x3793))))
 (let (($x1252 (not (and (or (not R_S1_V1) (= E1_!2446 ?x1715)) $x1577 $x1752 $x5291 $x3793))))
 (let (($x6049 (and (or (not R_S2_V1) (= ?x2194 (+ (- 1) ?x2289))) (or $x2588 (= (ite MW_S2_V3 S2_V3_!2475 ?x2139) ?x3466)) (or (not R_S2_V2) (= (ite MW_S2_V2 S2_V2_!2476 ?x1332) ?x2142)) (or $x4065 (= (ite MW_S2_V5 S2_V5_!2477 ?x3987) ?x2111)) (or $x2720 (= (ite MW_S2_V4 S2_V4_!2478 ?x411) ?x1773)))))
 (let (($x3453 (and (or (not R_E1_V2) (= V2_0 ?x1332)) (or (not R_E1_V5) (= V5_0 ?x3987)) (or (not R_E1_V4) (= V4_0 ?x411)))))
 (let (($x43 (not $x3453)))
 (let (($x1609 (= E1_!2467 E1_!2446)))
 (let (($x337 (or $x763 (= ?x3215 V4_0))))
 (let (($x5981 (or $x3192 (= ?x5021 V5_0))))
 (let (($x2983 (or $x2087 (= ?x1260 V2_0))))
 (let (($x491 (or $x1612 (= ?x2326 V3_0))))
 (let (($x1909 (and (or (not R_S1_V1) (= ?x1848 (+ (- 1) E1_!2467))) $x491 $x2983 $x5981 $x337)))
 (let (($x2477 (not $x1909)))
 (let (($x2186 (= S1_V2_!2459 S1_V2_!2449)))
 (let (($x3808 (and (or (not R_S1_V1) (= ?x1848 (+ (- 1) E1_!2446))) $x491 $x2983 $x5981 $x337)))
 (let (($x1028 (not $x3808)))
 (let (($x1198 (and (or $x1028 (= S1_V1_!2457 S1_V1_!2447)) (or (not (or (not R_S1_V1) $x1609)) (= S1_V1_!2468 S1_V1_!2447)) (or $x3359 (= S1_V1_!2468 S1_V1_!2457)) (or $x1051 (= S2_V5_!2455 S2_V5_!2465)) (or $x5843 (= S2_V5_!2455 S2_V5_!2477)) (or $x2200 (= S2_V5_!2455 S2_V5_!2482)) (or $x1420 (= S2_V5_!2465 S2_V5_!2477)) (or $x1454 (= S2_V5_!2465 S2_V5_!2482)) (or $x1563 (= S2_V5_!2482 S2_V5_!2477)) (or $x1028 (= S1_V3_!2458 S1_V3_!2448)) (or $x2477 (= S1_V3_!2458 S1_V3_!2469)) (or (not (or (not R_S1_V1) $x1609)) (= S1_V3_!2469 S1_V3_!2448)) (or $x1028 $x2186) (or $x2477 (= S1_V2_!2459 S1_V2_!2470)) (or (not (or (not R_S1_V1) $x1609)) (= S1_V2_!2470 S1_V2_!2449)) (or $x43 (= E1_!2446 E1_!2473)) $x1609 (or $x43 (= E1_!2467 E1_!2473)) (or $x336 (= S2_V4_!2466 S2_V4_!2456)) (or $x1420 (= S2_V4_!2466 S2_V4_!2478)) (or $x1454 (= S2_V4_!2466 S2_V4_!2483)) (or $x4745 (= S2_V4_!2478 S2_V4_!2456)) (or $x3826 (= S2_V4_!2478 S2_V4_!2483)) (or (not $x6049) (= S2_V4_!2483 S2_V4_!2456)) (or $x1252 (= S1_V5_!2450 S1_V5_!2460)) (or (not (or (not R_S1_V1) $x1609)) (= S1_V5_!2471 S1_V5_!2450)) (or $x3359 (= S1_V5_!2471 S1_V5_!2460)) (or $x2200 (= S2_V1_!2452 S2_V1_!2479)) (or $x336 (= S2_V1_!2462 S2_V1_!2452)) (or $x1454 (= S2_V1_!2462 S2_V1_!2479)) (or $x4745 (= S2_V1_!2474 S2_V1_!2452)) (or $x468 (= S2_V1_!2474 S2_V1_!2462)) (or $x3826 (= S2_V1_!2474 S2_V1_!2479)) (or $x1252 (= S1_V4_!2451 S1_V4_!2461)) (or (not (or (not R_S1_V1) (= E1_!2446 E1_!2467))) (= S1_V4_!2451 S1_V4_!2472)) (or $x3359 $x3292) (or $x1051 $x3110) (or $x5843 $x2710) (or $x2200 (= S2_V2_!2454 S2_V2_!2481)) (or $x1420 $x2773) (or (not $x2342) $x2624) (or $x1563 $x1008) (or $x2200 $x40) (or $x336 $x5104) (or $x1454 $x3137) (or $x4745 $x1973) (or $x468 $x2857) (or $x3826 $x350) (not MW_S1_V1) (not MW_S1_V2) (or (not MW_S1_V5) W_S1_V5) (or (not MW_S1_V4) W_S1_V4) (or (not MW_S2_V1) W_S2_V1) (or (not MW_S2_V3) W_S2_V3) (or (not MW_S2_V2) W_S2_V2) (or (not MW_S2_V5) W_S2_V5))))
 (or (not $x1198) (not $x1372) (and (= ?x1751 ?x2184) $x3757 (= ?x1861 ?x2794) $x5487 $x3431))))))))))))))))))))))))))))))))))))))))))))))))))))))))))))))))))))))))))))))))))))))))))))))))
 )
 )
 )
 )
 )
 )
 )
 )
 )
 )
 )
 )
 )
 )
 )
 )
 )
 )
 )
 )
 )
 )
 )
 )
 )
 )
 )
 )
 )
 )
 )
 )
 )
 )
 )
 )
 )
 )
 )
 )
 )
 )
 )
 )
 )
 )
 )
 )
 )
 )
 )
 ))
 (let (($x3080 (not (or (and W_S2_V2 R_E1_V2) (and W_S2_V5 R_E1_V5) R_E1_V4))))
 (let (($x1362 (= DISJ_W_S2_R_E1 $x3080)))
 (let (($x6065 (and W_S2_V5 R_S2_V5)))
 (let (($x3856 (and W_S2_V2 R_S2_V2)))
 (let (($x5058 (and W_S2_V3 R_S2_V3)))
 (let (($x5901 (and W_S2_V1 R_S2_V1)))
 (let (($x1724 (= DISJ_W_S2_R_S2 (not (or $x5901 $x5058 $x3856 $x6065 R_S2_V4)))))
 (let (($x3728 (and W_S2_V5 R_S1_V5)))
 (let (($x2652 (and W_S2_V2 R_S1_V2)))
 (let (($x1474 (and W_S2_V3 R_S1_V3)))
 (let (($x3428 (and W_S2_V1 R_S1_V1)))
 (let (($x3552 (= DISJ_W_S2_R_S1 (not (or $x3428 $x1474 $x2652 $x3728 R_S1_V4)))))
 (let (($x47 (= DISJ_W_S1_W_S2 (not (or W_S2_V3 (and W_S1_V5 W_S2_V5) W_S1_V4)))))
 (let (($x24 (not R_E1_V3)))
 (let (($x3525 (not (or R_S2_V3 (and W_S1_V5 R_S2_V5) (and W_S1_V4 R_S2_V4)))))
 (let (($x3201 (= DISJ_W_S1_R_S2 $x3525)))
 (let (($x1679 (not (or R_S1_V3 (and W_S1_V5 R_S1_V5) (and W_S1_V4 R_S1_V4)))))
 (let (($x4101 (= DISJ_W_S1_R_S1 $x1679)))
 (let (($x4108 (not R_S1_V1)))
 (let (($x3269 (and $x4108 DISJ_W_S1_R_S1)))
 (let (($x388 (and $x653 DISJ_W_S2_R_S1 DISJ_W_S1_R_S1)))
 (let (($x1838 (or $x388 $x5278 $x3269)))
 (let (($x4577 (not W_S1_V2)))
 (let (($x4684 (not W_S1_V1)))
 (let (($x5776 (not R_E1_V1)))
 (let (($x1476 (and DISJ_W_S1_R_E1 $x5776 $x4684 $x4577 $x1838 W_S1_V3 W_S2_V4 $x4101 $x3201 $x24 $x47 $x3552 $x1724 $x1362 $x3867 $x991 $x5911)))
 (and $x1476 $x293 $x2507 $x574 $x3652 $x1014 $x4996 $x3878 $x3351 $x1391 $x334 $x6015 $x1409 $x1464 $x1734 $x2735 $x2379)))))))))))))))))))))))))))))))))))))))))))))))))))))
(check-sat)
